c Arquivo convertido de can__229.mtx
p edge 229 774
e 1 2
e 1 24
e 1 25
e 1 26
e 1 48
e 1 73
e 1 74
e 1 96
e 2 3
e 2 25
e 2 26
e 2 27
e 2 73
e 2 74
e 2 75
e 3 4
e 3 26
e 3 27
e 3 28
e 3 74
e 3 75
e 3 76
e 3 151
e 3 175
e 4 5
e 4 27
e 4 28
e 4 29
e 4 75
e 4 76
e 4 77
e 5 6
e 5 28
e 5 29
e 5 30
e 5 76
e 5 77
e 5 78
e 6 7
e 6 29
e 6 30
e 6 31
e 6 77
e 6 78
e 6 79
e 7 8
e 7 30
e 7 31
e 7 32
e 7 78
e 7 79
e 7 80
e 7 152
e 7 176
e 8 9
e 8 31
e 8 32
e 8 33
e 8 79
e 8 80
e 8 81
e 9 10
e 9 32
e 9 33
e 9 34
e 9 80
e 9 81
e 9 82
e 10 11
e 10 33
e 10 34
e 10 35
e 10 81
e 10 82
e 10 83
e 11 12
e 11 34
e 11 35
e 11 36
e 11 82
e 11 83
e 11 84
e 11 153
e 11 177
e 12 13
e 12 35
e 12 36
e 12 37
e 12 83
e 12 84
e 12 85
e 13 14
e 13 36
e 13 37
e 13 38
e 13 84
e 13 85
e 13 86
e 14 15
e 14 37
e 14 38
e 14 39
e 14 85
e 14 86
e 14 87
e 15 16
e 15 38
e 15 39
e 15 40
e 15 86
e 15 87
e 15 88
e 15 154
e 15 178
e 16 17
e 16 39
e 16 40
e 16 41
e 16 87
e 16 88
e 16 89
e 17 18
e 17 40
e 17 41
e 17 42
e 17 88
e 17 89
e 17 90
e 18 19
e 18 41
e 18 42
e 18 43
e 18 89
e 18 90
e 18 91
e 19 20
e 19 42
e 19 43
e 19 44
e 19 90
e 19 91
e 19 92
e 19 155
e 19 179
e 20 21
e 20 43
e 20 44
e 20 45
e 20 91
e 20 92
e 20 93
e 21 22
e 21 44
e 21 45
e 21 46
e 21 92
e 21 93
e 21 94
e 22 23
e 22 45
e 22 46
e 22 47
e 22 93
e 22 94
e 22 95
e 23 24
e 23 46
e 23 47
e 23 48
e 23 94
e 23 95
e 23 96
e 23 156
e 23 180
e 24 25
e 24 47
e 24 48
e 24 73
e 24 95
e 24 96
e 25 26
e 25 48
e 25 49
e 25 50
e 25 72
e 26 27
e 26 49
e 26 50
e 26 51
e 27 28
e 27 50
e 27 51
e 27 52
e 28 29
e 28 51
e 28 52
e 28 53
e 29 30
e 29 52
e 29 53
e 29 54
e 30 31
e 30 53
e 30 54
e 30 55
e 31 32
e 31 54
e 31 55
e 31 56
e 32 33
e 32 55
e 32 56
e 32 57
e 33 34
e 33 56
e 33 57
e 33 58
e 34 35
e 34 57
e 34 58
e 34 59
e 35 36
e 35 58
e 35 59
e 35 60
e 36 37
e 36 59
e 36 60
e 36 61
e 37 38
e 37 60
e 37 61
e 37 62
e 38 39
e 38 61
e 38 62
e 38 63
e 39 40
e 39 62
e 39 63
e 39 64
e 40 41
e 40 63
e 40 64
e 40 65
e 41 42
e 41 64
e 41 65
e 41 66
e 42 43
e 42 65
e 42 66
e 42 67
e 43 44
e 43 66
e 43 67
e 43 68
e 44 45
e 44 67
e 44 68
e 44 69
e 45 46
e 45 68
e 45 69
e 45 70
e 46 47
e 46 69
e 46 70
e 46 71
e 47 48
e 47 70
e 47 71
e 47 72
e 48 49
e 48 71
e 48 72
e 49 50
e 49 72
e 50 51
e 51 52
e 52 53
e 53 54
e 54 55
e 55 56
e 56 57
e 57 58
e 58 59
e 59 60
e 60 61
e 61 62
e 62 63
e 63 64
e 64 65
e 65 66
e 66 67
e 67 68
e 68 69
e 69 70
e 70 71
e 71 72
e 73 74
e 73 96
e 73 97
e 73 98
e 73 120
e 74 75
e 74 97
e 74 98
e 74 99
e 75 76
e 75 98
e 75 99
e 75 100
e 76 77
e 76 99
e 76 100
e 76 101
e 77 78
e 77 100
e 77 101
e 77 102
e 78 79
e 78 101
e 78 102
e 78 103
e 79 80
e 79 102
e 79 103
e 79 104
e 80 81
e 80 103
e 80 104
e 80 105
e 81 82
e 81 104
e 81 105
e 81 106
e 82 83
e 82 105
e 82 106
e 82 107
e 83 84
e 83 106
e 83 107
e 83 108
e 84 85
e 84 107
e 84 108
e 84 109
e 85 86
e 85 108
e 85 109
e 85 110
e 86 87
e 86 109
e 86 110
e 86 111
e 87 88
e 87 110
e 87 111
e 87 112
e 88 89
e 88 111
e 88 112
e 88 113
e 89 90
e 89 112
e 89 113
e 89 114
e 90 91
e 90 113
e 90 114
e 90 115
e 91 92
e 91 114
e 91 115
e 91 116
e 92 93
e 92 115
e 92 116
e 92 117
e 93 94
e 93 116
e 93 117
e 93 118
e 94 95
e 94 117
e 94 118
e 94 119
e 95 96
e 95 118
e 95 119
e 95 120
e 96 97
e 96 119
e 96 120
e 97 98
e 97 120
e 97 121
e 97 122
e 97 144
e 97 145
e 97 164
e 98 99
e 98 121
e 98 122
e 98 123
e 99 100
e 99 122
e 99 123
e 99 124
e 100 101
e 100 123
e 100 124
e 100 125
e 101 102
e 101 124
e 101 125
e 101 126
e 101 146
e 101 166
e 102 103
e 102 125
e 102 126
e 102 127
e 103 104
e 103 126
e 103 127
e 103 128
e 104 105
e 104 127
e 104 128
e 104 129
e 105 106
e 105 128
e 105 129
e 105 130
e 105 147
e 105 168
e 106 107
e 106 129
e 106 130
e 106 131
e 107 108
e 107 130
e 107 131
e 107 132
e 108 109
e 108 131
e 108 132
e 108 133
e 109 110
e 109 132
e 109 133
e 109 134
e 109 148
e 109 170
e 110 111
e 110 133
e 110 134
e 110 135
e 111 112
e 111 134
e 111 135
e 111 136
e 112 113
e 112 135
e 112 136
e 112 137
e 113 114
e 113 136
e 113 137
e 113 138
e 113 149
e 113 172
e 114 115
e 114 137
e 114 138
e 114 139
e 115 116
e 115 138
e 115 139
e 115 140
e 116 117
e 116 139
e 116 140
e 116 141
e 117 118
e 117 140
e 117 141
e 117 142
e 117 150
e 117 174
e 118 119
e 118 141
e 118 142
e 118 143
e 119 120
e 119 142
e 119 143
e 119 144
e 120 121
e 120 143
e 120 144
e 121 122
e 121 144
e 121 181
e 121 182
e 121 204
e 122 123
e 122 181
e 122 182
e 122 183
e 123 124
e 123 182
e 123 183
e 123 184
e 124 125
e 124 183
e 124 184
e 124 185
e 125 126
e 125 184
e 125 185
e 125 186
e 126 127
e 126 185
e 126 186
e 126 187
e 127 128
e 127 186
e 127 187
e 127 188
e 128 129
e 128 187
e 128 188
e 128 189
e 129 130
e 129 188
e 129 189
e 129 190
e 130 131
e 130 189
e 130 190
e 130 191
e 131 132
e 131 190
e 131 191
e 131 192
e 132 133
e 132 191
e 132 192
e 132 193
e 133 134
e 133 192
e 133 193
e 133 194
e 134 135
e 134 193
e 134 194
e 134 195
e 135 136
e 135 194
e 135 195
e 135 196
e 136 137
e 136 195
e 136 196
e 136 197
e 137 138
e 137 196
e 137 197
e 137 198
e 138 139
e 138 197
e 138 198
e 138 199
e 139 140
e 139 198
e 139 199
e 139 200
e 140 141
e 140 199
e 140 200
e 140 201
e 141 142
e 141 200
e 141 201
e 141 202
e 142 143
e 142 201
e 142 202
e 142 203
e 143 144
e 143 202
e 143 203
e 143 204
e 144 181
e 144 203
e 144 204
e 145 164
e 146 166
e 147 168
e 148 170
e 149 172
e 150 174
e 151 175
e 152 176
e 153 177
e 154 178
e 155 179
e 156 180
e 157 164
e 157 165
e 157 166
e 157 175
e 158 166
e 158 167
e 158 168
e 158 176
e 159 168
e 159 169
e 159 170
e 159 177
e 160 170
e 160 171
e 160 172
e 160 178
e 161 172
e 161 173
e 161 174
e 161 179
e 162 163
e 162 164
e 162 174
e 162 180
e 163 164
e 165 166
e 167 168
e 169 170
e 171 172
e 173 174
e 181 182
e 181 204
e 181 205
e 181 206
e 181 228
e 182 183
e 182 205
e 182 206
e 182 207
e 183 184
e 183 206
e 183 207
e 183 208
e 184 185
e 184 207
e 184 208
e 184 209
e 185 186
e 185 208
e 185 209
e 185 210
e 186 187
e 186 209
e 186 210
e 186 211
e 187 188
e 187 210
e 187 211
e 187 212
e 188 189
e 188 211
e 188 212
e 188 213
e 189 190
e 189 212
e 189 213
e 189 214
e 190 191
e 190 213
e 190 214
e 190 215
e 191 192
e 191 214
e 191 215
e 191 216
e 192 193
e 192 215
e 192 216
e 192 217
e 193 194
e 193 216
e 193 217
e 193 218
e 194 195
e 194 217
e 194 218
e 194 219
e 195 196
e 195 218
e 195 219
e 195 220
e 196 197
e 196 219
e 196 220
e 196 221
e 197 198
e 197 220
e 197 221
e 197 222
e 198 199
e 198 221
e 198 222
e 198 223
e 199 200
e 199 222
e 199 223
e 199 224
e 200 201
e 200 223
e 200 224
e 200 225
e 201 202
e 201 224
e 201 225
e 201 226
e 202 203
e 202 225
e 202 226
e 202 227
e 203 204
e 203 226
e 203 227
e 203 228
e 204 205
e 204 227
e 204 228
e 205 206
e 205 228
e 205 229
e 206 207
e 207 208
e 207 229
e 208 209
e 209 210
e 209 229
e 210 211
e 211 212
e 211 229
e 212 213
e 213 214
e 213 229
e 214 215
e 215 216
e 215 229
e 216 217
e 217 218
e 217 229
e 218 219
e 219 220
e 219 229
e 220 221
e 221 222
e 221 229
e 222 223
e 223 224
e 223 229
e 224 225
e 225 226
e 225 229
e 226 227
e 227 228
e 227 229
